NAME : rnd4_50.tsp
TYPE : TSP
DIMENSION : 50
EDGE_WEIGHT_TYPE : EUC_2D
NODE_COORD_SECTION
1 629 961
2 999 369
3 420 203
4 473 731
5 25 726
6 143 807
7 448 285
8 6 652
9 437 17
10 283 544
11 730 849
12 391 453
13 501 616
14 63 152
15 878 770
16 428 81
17 467 218
18 447 676
19 419 515
20 587 105
21 655 126
22 438 695
23 616 80
24 840 82
25 825 778
26 174 507
27 583 453
28 88 231
29 429 343
30 678 325
31 537 805
32 866 500
33 460 502
34 101 61
35 849 727
36 264 358
37 385 521
38 121 255
39 728 663
40 710 435
41 9 299
42 101 66
43 340 894
44 102 814
45 201 145
46 724 157
47 416 954
48 955 52
49 443 767
50 311 252
